min: T; 


//Implementa a funcao objetivo 
T>=F[1];
T>=F[2];
T>=F[3];
T>=F[4];
T>=F[5];
T>=F[6];
T>=F[7];
T>=F[8];
T>=F[9];
T>=F[10];
T>=F[11];
T>=F[12];
T>=F[13];
T>=F[14];
T>=F[15];
T>=F[16];
T>=F[17];
T>=F[18];
T>=F[19];
T>=F[20];
T>=F[21];
T>=F[22];
T>=F[23];
T>=F[24];
T>=F[25];
T>=F[26];
T>=F[27];
T>=F[28];
T>=F[29];
T>=F[30];
T>=F[31];
T>=F[32];
T>=F[33];
T>=F[34];
T>=F[35];
T>=F[36];
T>=F[37];
T>=F[38];
T>=F[39];
T>=F[40];
T>=F[41];
T>=F[42];
T>=F[43];
T>=F[44];
T>=F[45];
T>=F[46];
T>=F[47];
T>=F[48];
T>=F[49];
T>=F[50];
T>=F[51];
T>=F[52];
T>=F[53];
T>=F[54];
T>=F[55];
T>=F[56];
T>=F[57];
T>=F[58];
T>=F[59];
T>=F[60];

 // Restricoes de precedencia 
I[1]>=F[10];
I[1]>=F[11];
I[1]>=F[13];
I[1]>=F[14];
I[1]>=F[21];
I[1]>=F[28];
I[1]>=F[31];
I[1]>=F[34];
I[1]>=F[36];
I[1]>=F[39];
I[1]>=F[40];
I[1]>=F[43];
I[1]>=F[46];
I[1]>=F[49];
I[1]>=F[52];
I[1]>=F[53];
I[1]>=F[55];
I[1]>=F[56];
I[1]>=F[57];
I[1]>=F[58];
I[1]>=F[59];
I[1]>=F[60];
I[2]>=F[9];
I[3]>=F[4];
I[3]>=F[8];
I[3]>=F[32];
I[3]>=F[47];
I[3]>=F[49];
I[3]>=F[50];
I[3]>=F[54];
I[3]>=F[56];
I[3]>=F[60];
I[4]>=F[56];
I[5]>=F[26];
I[5]>=F[28];
I[5]>=F[35];
I[5]>=F[39];
I[5]>=F[57];
I[5]>=F[59];
I[6]>=F[18];
I[6]>=F[34];
I[6]>=F[52];
I[6]>=F[53];
I[6]>=F[55];
I[6]>=F[57];
I[6]>=F[59];
I[6]>=F[60];
I[7]>=F[9];
I[7]>=F[18];
I[7]>=F[27];
I[7]>=F[36];
I[7]>=F[52];
I[7]>=F[53];
I[7]>=F[54];
I[7]>=F[57];
I[7]>=F[59];
I[7]>=F[60];
I[8]>=F[32];
I[8]>=F[47];
I[8]>=F[49];
I[8]>=F[50];
I[8]>=F[60];
I[10]>=F[31];
I[10]>=F[43];
I[10]>=F[52];
I[10]>=F[53];
I[10]>=F[55];
I[10]>=F[57];
I[10]>=F[59];
I[10]>=F[60];
I[11]>=F[46];
I[11]>=F[55];
I[12]>=F[26];
I[12]>=F[28];
I[12]>=F[30];
I[12]>=F[33];
I[12]>=F[34];
I[12]>=F[39];
I[12]>=F[48];
I[12]>=F[49];
I[12]>=F[57];
I[12]>=F[59];
I[13]>=F[56];
I[14]>=F[36];
I[14]>=F[39];
I[15]>=F[33];
I[15]>=F[49];
I[16]>=F[50];
I[17]>=F[38];
I[17]>=F[56];
I[17]>=F[58];
I[17]>=F[59];
I[18]>=F[52];
I[18]>=F[53];
I[18]>=F[57];
I[18]>=F[59];
I[18]>=F[60];
I[19]>=F[46];
I[19]>=F[55];
I[20]>=F[27];
I[20]>=F[36];
I[21]>=F[28];
I[21]>=F[34];
I[21]>=F[39];
I[21]>=F[49];
I[22]>=F[39];
I[22]>=F[44];
I[23]>=F[26];
I[23]>=F[28];
I[23]>=F[29];
I[23]>=F[30];
I[23]>=F[33];
I[23]>=F[34];
I[23]>=F[39];
I[23]>=F[46];
I[23]>=F[48];
I[23]>=F[49];
I[23]>=F[55];
I[23]>=F[57];
I[23]>=F[59];
I[25]>=F[28];
I[25]>=F[39];
I[25]>=F[49];
I[25]>=F[58];
I[25]>=F[59];
I[26]>=F[28];
I[26]>=F[39];
I[26]>=F[57];
I[26]>=F[59];
I[27]>=F[36];
I[28]>=F[39];
I[29]>=F[30];
I[29]>=F[33];
I[29]>=F[34];
I[29]>=F[49];
I[30]>=F[33];
I[30]>=F[34];
I[30]>=F[49];
I[31]>=F[59];
I[32]>=F[47];
I[32]>=F[49];
I[32]>=F[60];
I[33]>=F[49];
I[35]>=F[57];
I[35]>=F[59];
I[38]>=F[56];
I[38]>=F[58];
I[38]>=F[59];
I[40]>=F[55];
I[42]>=F[57];
I[42]>=F[59];
I[43]>=F[52];
I[43]>=F[53];
I[43]>=F[55];
I[43]>=F[57];
I[43]>=F[59];
I[43]>=F[60];
I[45]>=F[49];
I[45]>=F[55];
I[46]>=F[55];
I[47]>=F[60];
I[52]>=F[53];
I[52]>=F[57];
I[52]>=F[59];
I[52]>=F[60];
I[53]>=F[57];
I[53]>=F[59];
I[57]>=F[59];
I[58]>=F[59];

 // Implementa as restricoes de tempo 
F[1]-I[1]>=10;
F[2]-I[2]>=9;
F[3]-I[3]>=11;
F[4]-I[4]>=18;
F[5]-I[5]>=11;
F[6]-I[6]>=5;
F[7]-I[7]>=8;
F[8]-I[8]>=11;
F[9]-I[9]>=11;
F[10]-I[10]>=11;
F[11]-I[11]>=3;
F[12]-I[12]>=5;
F[13]-I[13]>=7;
F[14]-I[14]>=13;
F[15]-I[15]>=7;
F[16]-I[16]>=6;
F[17]-I[17]>=16;
F[18]-I[18]>=9;
F[19]-I[19]>=18;
F[20]-I[20]>=16;
F[21]-I[21]>=9;
F[22]-I[22]>=15;
F[23]-I[23]>=15;
F[24]-I[24]>=9;
F[25]-I[25]>=12;
F[26]-I[26]>=14;
F[27]-I[27]>=14;
F[28]-I[28]>=11;
F[29]-I[29]>=8;
F[30]-I[30]>=6;
F[31]-I[31]>=10;
F[32]-I[32]>=17;
F[33]-I[33]>=3;
F[34]-I[34]>=6;
F[35]-I[35]>=5;
F[36]-I[36]>=14;
F[37]-I[37]>=15;
F[38]-I[38]>=10;
F[39]-I[39]>=4;
F[40]-I[40]>=12;
F[41]-I[41]>=16;
F[42]-I[42]>=17;
F[43]-I[43]>=6;
F[44]-I[44]>=11;
F[45]-I[45]>=8;
F[46]-I[46]>=13;
F[47]-I[47]>=5;
F[48]-I[48]>=12;
F[49]-I[49]>=16;
F[50]-I[50]>=6;
F[51]-I[51]>=12;
F[52]-I[52]>=15;
F[53]-I[53]>=18;
F[54]-I[54]>=6;
F[55]-I[55]>=12;
F[56]-I[56]>=9;
F[57]-I[57]>=11;
F[58]-I[58]>=6;
F[59]-I[59]>=17;
F[60]-I[60]>=10;

 // Implementa as restricoes de nao colisao 
u[1][5] + u[5][1] >= 1;
640u[1][5]>= I[1]-F[5];
640-640u[1][5]>= F[5]-I[1];
640u[5][1]>= I[5]-F[1];
640-640u[5][1]>= F[1]-I[5];

u[1][6] + u[6][1] >= 1;
640u[1][6]>= I[1]-F[6];
640-640u[1][6]>= F[6]-I[1];
640u[6][1]>= I[6]-F[1];
640-640u[6][1]>= F[1]-I[6];

u[1][9] + u[9][1] >= 1;
640u[1][9]>= I[1]-F[9];
640-640u[1][9]>= F[9]-I[1];
640u[9][1]>= I[9]-F[1];
640-640u[9][1]>= F[1]-I[9];

u[1][24] + u[24][1] >= 1;
640u[1][24]>= I[1]-F[24];
640-640u[1][24]>= F[24]-I[1];
640u[24][1]>= I[24]-F[1];
640-640u[24][1]>= F[1]-I[24];

u[1][26] + u[26][1] >= 1;
640u[1][26]>= I[1]-F[26];
640-640u[1][26]>= F[26]-I[1];
640u[26][1]>= I[26]-F[1];
640-640u[26][1]>= F[1]-I[26];

u[1][47] + u[47][1] >= 1;
640u[1][47]>= I[1]-F[47];
640-640u[1][47]>= F[47]-I[1];
640u[47][1]>= I[47]-F[1];
640-640u[47][1]>= F[1]-I[47];

u[2][16] + u[16][2] >= 1;
640u[2][16]>= I[2]-F[16];
640-640u[2][16]>= F[16]-I[2];
640u[16][2]>= I[16]-F[2];
640-640u[16][2]>= F[2]-I[16];

u[2][19] + u[19][2] >= 1;
640u[2][19]>= I[2]-F[19];
640-640u[2][19]>= F[19]-I[2];
640u[19][2]>= I[19]-F[2];
640-640u[19][2]>= F[2]-I[19];

u[2][41] + u[41][2] >= 1;
640u[2][41]>= I[2]-F[41];
640-640u[2][41]>= F[41]-I[2];
640u[41][2]>= I[41]-F[2];
640-640u[41][2]>= F[2]-I[41];

u[2][44] + u[44][2] >= 1;
640u[2][44]>= I[2]-F[44];
640-640u[2][44]>= F[44]-I[2];
640u[44][2]>= I[44]-F[2];
640-640u[44][2]>= F[2]-I[44];

u[3][11] + u[11][3] >= 1;
640u[3][11]>= I[3]-F[11];
640-640u[3][11]>= F[11]-I[3];
640u[11][3]>= I[11]-F[3];
640-640u[11][3]>= F[3]-I[11];

u[3][48] + u[48][3] >= 1;
640u[3][48]>= I[3]-F[48];
640-640u[3][48]>= F[48]-I[3];
640u[48][3]>= I[48]-F[3];
640-640u[48][3]>= F[3]-I[48];

u[4][12] + u[12][4] >= 1;
640u[4][12]>= I[4]-F[12];
640-640u[4][12]>= F[12]-I[4];
640u[12][4]>= I[12]-F[4];
640-640u[12][4]>= F[4]-I[12];

u[4][45] + u[45][4] >= 1;
640u[4][45]>= I[4]-F[45];
640-640u[4][45]>= F[45]-I[4];
640u[45][4]>= I[45]-F[4];
640-640u[45][4]>= F[4]-I[45];

u[5][6] + u[6][5] >= 1;
640u[5][6]>= I[5]-F[6];
640-640u[5][6]>= F[6]-I[5];
640u[6][5]>= I[6]-F[5];
640-640u[6][5]>= F[5]-I[6];

u[5][9] + u[9][5] >= 1;
640u[5][9]>= I[5]-F[9];
640-640u[5][9]>= F[9]-I[5];
640u[9][5]>= I[9]-F[5];
640-640u[9][5]>= F[5]-I[9];

u[5][24] + u[24][5] >= 1;
640u[5][24]>= I[5]-F[24];
640-640u[5][24]>= F[24]-I[5];
640u[24][5]>= I[24]-F[5];
640-640u[24][5]>= F[5]-I[24];

u[5][47] + u[47][5] >= 1;
640u[5][47]>= I[5]-F[47];
640-640u[5][47]>= F[47]-I[5];
640u[47][5]>= I[47]-F[5];
640-640u[47][5]>= F[5]-I[47];

u[6][9] + u[9][6] >= 1;
640u[6][9]>= I[6]-F[9];
640-640u[6][9]>= F[9]-I[6];
640u[9][6]>= I[9]-F[6];
640-640u[9][6]>= F[6]-I[9];

u[6][24] + u[24][6] >= 1;
640u[6][24]>= I[6]-F[24];
640-640u[6][24]>= F[24]-I[6];
640u[24][6]>= I[24]-F[6];
640-640u[24][6]>= F[6]-I[24];

u[6][26] + u[26][6] >= 1;
640u[6][26]>= I[6]-F[26];
640-640u[6][26]>= F[26]-I[6];
640u[26][6]>= I[26]-F[6];
640-640u[26][6]>= F[6]-I[26];

u[6][28] + u[28][6] >= 1;
640u[6][28]>= I[6]-F[28];
640-640u[6][28]>= F[28]-I[6];
640u[28][6]>= I[28]-F[6];
640-640u[28][6]>= F[6]-I[28];

u[6][47] + u[47][6] >= 1;
640u[6][47]>= I[6]-F[47];
640-640u[6][47]>= F[47]-I[6];
640u[47][6]>= I[47]-F[6];
640-640u[47][6]>= F[6]-I[47];

u[7][30] + u[30][7] >= 1;
640u[7][30]>= I[7]-F[30];
640-640u[7][30]>= F[30]-I[7];
640u[30][7]>= I[30]-F[7];
640-640u[30][7]>= F[7]-I[30];

u[7][31] + u[31][7] >= 1;
640u[7][31]>= I[7]-F[31];
640-640u[7][31]>= F[31]-I[7];
640u[31][7]>= I[31]-F[7];
640-640u[31][7]>= F[7]-I[31];

u[7][39] + u[39][7] >= 1;
640u[7][39]>= I[7]-F[39];
640-640u[7][39]>= F[39]-I[7];
640u[39][7]>= I[39]-F[7];
640-640u[39][7]>= F[7]-I[39];

u[7][40] + u[40][7] >= 1;
640u[7][40]>= I[7]-F[40];
640-640u[7][40]>= F[40]-I[7];
640u[40][7]>= I[40]-F[7];
640-640u[40][7]>= F[7]-I[40];

u[8][29] + u[29][8] >= 1;
640u[8][29]>= I[8]-F[29];
640-640u[8][29]>= F[29]-I[8];
640u[29][8]>= I[29]-F[8];
640-640u[29][8]>= F[8]-I[29];

u[9][24] + u[24][9] >= 1;
640u[9][24]>= I[9]-F[24];
640-640u[9][24]>= F[24]-I[9];
640u[24][9]>= I[24]-F[9];
640-640u[24][9]>= F[9]-I[24];

u[9][26] + u[26][9] >= 1;
640u[9][26]>= I[9]-F[26];
640-640u[9][26]>= F[26]-I[9];
640u[26][9]>= I[26]-F[9];
640-640u[26][9]>= F[9]-I[26];

u[9][28] + u[28][9] >= 1;
640u[9][28]>= I[9]-F[28];
640-640u[9][28]>= F[28]-I[9];
640u[28][9]>= I[28]-F[9];
640-640u[28][9]>= F[9]-I[28];

u[9][47] + u[47][9] >= 1;
640u[9][47]>= I[9]-F[47];
640-640u[9][47]>= F[47]-I[9];
640u[47][9]>= I[47]-F[9];
640-640u[47][9]>= F[9]-I[47];

u[10][20] + u[20][10] >= 1;
640u[10][20]>= I[10]-F[20];
640-640u[10][20]>= F[20]-I[10];
640u[20][10]>= I[20]-F[10];
640-640u[20][10]>= F[10]-I[20];

u[10][35] + u[35][10] >= 1;
640u[10][35]>= I[10]-F[35];
640-640u[10][35]>= F[35]-I[10];
640u[35][10]>= I[35]-F[10];
640-640u[35][10]>= F[10]-I[35];

u[10][38] + u[38][10] >= 1;
640u[10][38]>= I[10]-F[38];
640-640u[10][38]>= F[38]-I[10];
640u[38][10]>= I[38]-F[10];
640-640u[38][10]>= F[10]-I[38];

u[10][46] + u[46][10] >= 1;
640u[10][46]>= I[10]-F[46];
640-640u[10][46]>= F[46]-I[10];
640u[46][10]>= I[46]-F[10];
640-640u[46][10]>= F[10]-I[46];

u[10][49] + u[49][10] >= 1;
640u[10][49]>= I[10]-F[49];
640-640u[10][49]>= F[49]-I[10];
640u[49][10]>= I[49]-F[10];
640-640u[49][10]>= F[10]-I[49];

u[10][50] + u[50][10] >= 1;
640u[10][50]>= I[10]-F[50];
640-640u[10][50]>= F[50]-I[10];
640u[50][10]>= I[50]-F[10];
640-640u[50][10]>= F[10]-I[50];

u[11][48] + u[48][11] >= 1;
640u[11][48]>= I[11]-F[48];
640-640u[11][48]>= F[48]-I[11];
640u[48][11]>= I[48]-F[11];
640-640u[48][11]>= F[11]-I[48];

u[12][45] + u[45][12] >= 1;
640u[12][45]>= I[12]-F[45];
640-640u[12][45]>= F[45]-I[12];
640u[45][12]>= I[45]-F[12];
640-640u[45][12]>= F[12]-I[45];

u[13][18] + u[18][13] >= 1;
640u[13][18]>= I[13]-F[18];
640-640u[13][18]>= F[18]-I[13];
640u[18][13]>= I[18]-F[13];
640-640u[18][13]>= F[13]-I[18];

u[13][23] + u[23][13] >= 1;
640u[13][23]>= I[13]-F[23];
640-640u[13][23]>= F[23]-I[13];
640u[23][13]>= I[23]-F[13];
640-640u[23][13]>= F[13]-I[23];

u[13][43] + u[43][13] >= 1;
640u[13][43]>= I[13]-F[43];
640-640u[13][43]>= F[43]-I[13];
640u[43][13]>= I[43]-F[13];
640-640u[43][13]>= F[13]-I[43];

u[14][17] + u[17][14] >= 1;
640u[14][17]>= I[14]-F[17];
640-640u[14][17]>= F[17]-I[14];
640u[17][14]>= I[17]-F[14];
640-640u[17][14]>= F[14]-I[17];

u[14][25] + u[25][14] >= 1;
640u[14][25]>= I[14]-F[25];
640-640u[14][25]>= F[25]-I[14];
640u[25][14]>= I[25]-F[14];
640-640u[25][14]>= F[14]-I[25];

u[14][27] + u[27][14] >= 1;
640u[14][27]>= I[14]-F[27];
640-640u[14][27]>= F[27]-I[14];
640u[27][14]>= I[27]-F[14];
640-640u[27][14]>= F[14]-I[27];

u[14][37] + u[37][14] >= 1;
640u[14][37]>= I[14]-F[37];
640-640u[14][37]>= F[37]-I[14];
640u[37][14]>= I[37]-F[14];
640-640u[37][14]>= F[14]-I[37];

u[14][52] + u[52][14] >= 1;
640u[14][52]>= I[14]-F[52];
640-640u[14][52]>= F[52]-I[14];
640u[52][14]>= I[52]-F[14];
640-640u[52][14]>= F[14]-I[52];

u[14][58] + u[58][14] >= 1;
640u[14][58]>= I[14]-F[58];
640-640u[14][58]>= F[58]-I[14];
640u[58][14]>= I[58]-F[14];
640-640u[58][14]>= F[14]-I[58];

u[15][54] + u[54][15] >= 1;
640u[15][54]>= I[15]-F[54];
640-640u[15][54]>= F[54]-I[15];
640u[54][15]>= I[54]-F[15];
640-640u[54][15]>= F[15]-I[54];

u[15][56] + u[56][15] >= 1;
640u[15][56]>= I[15]-F[56];
640-640u[15][56]>= F[56]-I[15];
640u[56][15]>= I[56]-F[15];
640-640u[56][15]>= F[15]-I[56];

u[15][60] + u[60][15] >= 1;
640u[15][60]>= I[15]-F[60];
640-640u[15][60]>= F[60]-I[15];
640u[60][15]>= I[60]-F[15];
640-640u[60][15]>= F[15]-I[60];

u[16][19] + u[19][16] >= 1;
640u[16][19]>= I[16]-F[19];
640-640u[16][19]>= F[19]-I[16];
640u[19][16]>= I[19]-F[16];
640-640u[19][16]>= F[16]-I[19];

u[16][41] + u[41][16] >= 1;
640u[16][41]>= I[16]-F[41];
640-640u[16][41]>= F[41]-I[16];
640u[41][16]>= I[41]-F[16];
640-640u[41][16]>= F[16]-I[41];

u[16][44] + u[44][16] >= 1;
640u[16][44]>= I[16]-F[44];
640-640u[16][44]>= F[44]-I[16];
640u[44][16]>= I[44]-F[16];
640-640u[44][16]>= F[16]-I[44];

u[17][25] + u[25][17] >= 1;
640u[17][25]>= I[17]-F[25];
640-640u[17][25]>= F[25]-I[17];
640u[25][17]>= I[25]-F[17];
640-640u[25][17]>= F[17]-I[25];

u[17][27] + u[27][17] >= 1;
640u[17][27]>= I[17]-F[27];
640-640u[17][27]>= F[27]-I[17];
640u[27][17]>= I[27]-F[17];
640-640u[27][17]>= F[17]-I[27];

u[17][37] + u[37][17] >= 1;
640u[17][37]>= I[17]-F[37];
640-640u[17][37]>= F[37]-I[17];
640u[37][17]>= I[37]-F[17];
640-640u[37][17]>= F[17]-I[37];

u[17][52] + u[52][17] >= 1;
640u[17][52]>= I[17]-F[52];
640-640u[17][52]>= F[52]-I[17];
640u[52][17]>= I[52]-F[17];
640-640u[52][17]>= F[17]-I[52];

u[18][23] + u[23][18] >= 1;
640u[18][23]>= I[18]-F[23];
640-640u[18][23]>= F[23]-I[18];
640u[23][18]>= I[23]-F[18];
640-640u[23][18]>= F[18]-I[23];

u[18][43] + u[43][18] >= 1;
640u[18][43]>= I[18]-F[43];
640-640u[18][43]>= F[43]-I[18];
640u[43][18]>= I[43]-F[18];
640-640u[43][18]>= F[18]-I[43];

u[19][41] + u[41][19] >= 1;
640u[19][41]>= I[19]-F[41];
640-640u[19][41]>= F[41]-I[19];
640u[41][19]>= I[41]-F[19];
640-640u[41][19]>= F[19]-I[41];

u[19][44] + u[44][19] >= 1;
640u[19][44]>= I[19]-F[44];
640-640u[19][44]>= F[44]-I[19];
640u[44][19]>= I[44]-F[19];
640-640u[44][19]>= F[19]-I[44];

u[20][35] + u[35][20] >= 1;
640u[20][35]>= I[20]-F[35];
640-640u[20][35]>= F[35]-I[20];
640u[35][20]>= I[35]-F[20];
640-640u[35][20]>= F[20]-I[35];

u[20][38] + u[38][20] >= 1;
640u[20][38]>= I[20]-F[38];
640-640u[20][38]>= F[38]-I[20];
640u[38][20]>= I[38]-F[20];
640-640u[38][20]>= F[20]-I[38];

u[20][46] + u[46][20] >= 1;
640u[20][46]>= I[20]-F[46];
640-640u[20][46]>= F[46]-I[20];
640u[46][20]>= I[46]-F[20];
640-640u[46][20]>= F[20]-I[46];

u[20][49] + u[49][20] >= 1;
640u[20][49]>= I[20]-F[49];
640-640u[20][49]>= F[49]-I[20];
640u[49][20]>= I[49]-F[20];
640-640u[49][20]>= F[20]-I[49];

u[20][50] + u[50][20] >= 1;
640u[20][50]>= I[20]-F[50];
640-640u[20][50]>= F[50]-I[20];
640u[50][20]>= I[50]-F[20];
640-640u[50][20]>= F[20]-I[50];

u[20][59] + u[59][20] >= 1;
640u[20][59]>= I[20]-F[59];
640-640u[20][59]>= F[59]-I[20];
640u[59][20]>= I[59]-F[20];
640-640u[59][20]>= F[20]-I[59];

u[21][33] + u[33][21] >= 1;
640u[21][33]>= I[21]-F[33];
640-640u[21][33]>= F[33]-I[21];
640u[33][21]>= I[33]-F[21];
640-640u[33][21]>= F[21]-I[33];

u[21][51] + u[51][21] >= 1;
640u[21][51]>= I[21]-F[51];
640-640u[21][51]>= F[51]-I[21];
640u[51][21]>= I[51]-F[21];
640-640u[51][21]>= F[21]-I[51];

u[22][42] + u[42][22] >= 1;
640u[22][42]>= I[22]-F[42];
640-640u[22][42]>= F[42]-I[22];
640u[42][22]>= I[42]-F[22];
640-640u[42][22]>= F[22]-I[42];

u[22][57] + u[57][22] >= 1;
640u[22][57]>= I[22]-F[57];
640-640u[22][57]>= F[57]-I[22];
640u[57][22]>= I[57]-F[22];
640-640u[57][22]>= F[22]-I[57];

u[23][43] + u[43][23] >= 1;
640u[23][43]>= I[23]-F[43];
640-640u[23][43]>= F[43]-I[23];
640u[43][23]>= I[43]-F[23];
640-640u[43][23]>= F[23]-I[43];

u[24][26] + u[26][24] >= 1;
640u[24][26]>= I[24]-F[26];
640-640u[24][26]>= F[26]-I[24];
640u[26][24]>= I[26]-F[24];
640-640u[26][24]>= F[24]-I[26];

u[24][28] + u[28][24] >= 1;
640u[24][28]>= I[24]-F[28];
640-640u[24][28]>= F[28]-I[24];
640u[28][24]>= I[28]-F[24];
640-640u[28][24]>= F[24]-I[28];

u[24][47] + u[47][24] >= 1;
640u[24][47]>= I[24]-F[47];
640-640u[24][47]>= F[47]-I[24];
640u[47][24]>= I[47]-F[24];
640-640u[47][24]>= F[24]-I[47];

u[25][27] + u[27][25] >= 1;
640u[25][27]>= I[25]-F[27];
640-640u[25][27]>= F[27]-I[25];
640u[27][25]>= I[27]-F[25];
640-640u[27][25]>= F[25]-I[27];

u[25][37] + u[37][25] >= 1;
640u[25][37]>= I[25]-F[37];
640-640u[25][37]>= F[37]-I[25];
640u[37][25]>= I[37]-F[25];
640-640u[37][25]>= F[25]-I[37];

u[25][52] + u[52][25] >= 1;
640u[25][52]>= I[25]-F[52];
640-640u[25][52]>= F[52]-I[25];
640u[52][25]>= I[52]-F[25];
640-640u[52][25]>= F[25]-I[52];

u[26][47] + u[47][26] >= 1;
640u[26][47]>= I[26]-F[47];
640-640u[26][47]>= F[47]-I[26];
640u[47][26]>= I[47]-F[26];
640-640u[47][26]>= F[26]-I[47];

u[27][37] + u[37][27] >= 1;
640u[27][37]>= I[27]-F[37];
640-640u[27][37]>= F[37]-I[27];
640u[37][27]>= I[37]-F[27];
640-640u[37][27]>= F[27]-I[37];

u[27][52] + u[52][27] >= 1;
640u[27][52]>= I[27]-F[52];
640-640u[27][52]>= F[52]-I[27];
640u[52][27]>= I[52]-F[27];
640-640u[52][27]>= F[27]-I[52];

u[27][58] + u[58][27] >= 1;
640u[27][58]>= I[27]-F[58];
640-640u[27][58]>= F[58]-I[27];
640u[58][27]>= I[58]-F[27];
640-640u[58][27]>= F[27]-I[58];

u[28][47] + u[47][28] >= 1;
640u[28][47]>= I[28]-F[47];
640-640u[28][47]>= F[47]-I[28];
640u[47][28]>= I[47]-F[28];
640-640u[47][28]>= F[28]-I[47];

u[30][31] + u[31][30] >= 1;
640u[30][31]>= I[30]-F[31];
640-640u[30][31]>= F[31]-I[30];
640u[31][30]>= I[31]-F[30];
640-640u[31][30]>= F[30]-I[31];

u[30][39] + u[39][30] >= 1;
640u[30][39]>= I[30]-F[39];
640-640u[30][39]>= F[39]-I[30];
640u[39][30]>= I[39]-F[30];
640-640u[39][30]>= F[30]-I[39];

u[30][40] + u[40][30] >= 1;
640u[30][40]>= I[30]-F[40];
640-640u[30][40]>= F[40]-I[30];
640u[40][30]>= I[40]-F[30];
640-640u[40][30]>= F[30]-I[40];

u[31][39] + u[39][31] >= 1;
640u[31][39]>= I[31]-F[39];
640-640u[31][39]>= F[39]-I[31];
640u[39][31]>= I[39]-F[31];
640-640u[39][31]>= F[31]-I[39];

u[31][40] + u[40][31] >= 1;
640u[31][40]>= I[31]-F[40];
640-640u[31][40]>= F[40]-I[31];
640u[40][31]>= I[40]-F[31];
640-640u[40][31]>= F[31]-I[40];

u[32][34] + u[34][32] >= 1;
640u[32][34]>= I[32]-F[34];
640-640u[32][34]>= F[34]-I[32];
640u[34][32]>= I[34]-F[32];
640-640u[34][32]>= F[32]-I[34];

u[32][36] + u[36][32] >= 1;
640u[32][36]>= I[32]-F[36];
640-640u[32][36]>= F[36]-I[32];
640u[36][32]>= I[36]-F[32];
640-640u[36][32]>= F[32]-I[36];

u[32][55] + u[55][32] >= 1;
640u[32][55]>= I[32]-F[55];
640-640u[32][55]>= F[55]-I[32];
640u[55][32]>= I[55]-F[32];
640-640u[55][32]>= F[32]-I[55];

u[33][51] + u[51][33] >= 1;
640u[33][51]>= I[33]-F[51];
640-640u[33][51]>= F[51]-I[33];
640u[51][33]>= I[51]-F[33];
640-640u[51][33]>= F[33]-I[51];

u[34][36] + u[36][34] >= 1;
640u[34][36]>= I[34]-F[36];
640-640u[34][36]>= F[36]-I[34];
640u[36][34]>= I[36]-F[34];
640-640u[36][34]>= F[34]-I[36];

u[34][55] + u[55][34] >= 1;
640u[34][55]>= I[34]-F[55];
640-640u[34][55]>= F[55]-I[34];
640u[55][34]>= I[55]-F[34];
640-640u[55][34]>= F[34]-I[55];

u[35][38] + u[38][35] >= 1;
640u[35][38]>= I[35]-F[38];
640-640u[35][38]>= F[38]-I[35];
640u[38][35]>= I[38]-F[35];
640-640u[38][35]>= F[35]-I[38];

u[35][46] + u[46][35] >= 1;
640u[35][46]>= I[35]-F[46];
640-640u[35][46]>= F[46]-I[35];
640u[46][35]>= I[46]-F[35];
640-640u[46][35]>= F[35]-I[46];

u[35][49] + u[49][35] >= 1;
640u[35][49]>= I[35]-F[49];
640-640u[35][49]>= F[49]-I[35];
640u[49][35]>= I[49]-F[35];
640-640u[49][35]>= F[35]-I[49];

u[35][50] + u[50][35] >= 1;
640u[35][50]>= I[35]-F[50];
640-640u[35][50]>= F[50]-I[35];
640u[50][35]>= I[50]-F[35];
640-640u[50][35]>= F[35]-I[50];

u[36][55] + u[55][36] >= 1;
640u[36][55]>= I[36]-F[55];
640-640u[36][55]>= F[55]-I[36];
640u[55][36]>= I[55]-F[36];
640-640u[55][36]>= F[36]-I[55];

u[37][52] + u[52][37] >= 1;
640u[37][52]>= I[37]-F[52];
640-640u[37][52]>= F[52]-I[37];
640u[52][37]>= I[52]-F[37];
640-640u[52][37]>= F[37]-I[52];

u[37][58] + u[58][37] >= 1;
640u[37][58]>= I[37]-F[58];
640-640u[37][58]>= F[58]-I[37];
640u[58][37]>= I[58]-F[37];
640-640u[58][37]>= F[37]-I[58];

u[38][46] + u[46][38] >= 1;
640u[38][46]>= I[38]-F[46];
640-640u[38][46]>= F[46]-I[38];
640u[46][38]>= I[46]-F[38];
640-640u[46][38]>= F[38]-I[46];

u[38][49] + u[49][38] >= 1;
640u[38][49]>= I[38]-F[49];
640-640u[38][49]>= F[49]-I[38];
640u[49][38]>= I[49]-F[38];
640-640u[49][38]>= F[38]-I[49];

u[38][50] + u[50][38] >= 1;
640u[38][50]>= I[38]-F[50];
640-640u[38][50]>= F[50]-I[38];
640u[50][38]>= I[50]-F[38];
640-640u[50][38]>= F[38]-I[50];

u[39][40] + u[40][39] >= 1;
640u[39][40]>= I[39]-F[40];
640-640u[39][40]>= F[40]-I[39];
640u[40][39]>= I[40]-F[39];
640-640u[40][39]>= F[39]-I[40];

u[41][44] + u[44][41] >= 1;
640u[41][44]>= I[41]-F[44];
640-640u[41][44]>= F[44]-I[41];
640u[44][41]>= I[44]-F[41];
640-640u[44][41]>= F[41]-I[44];

u[46][49] + u[49][46] >= 1;
640u[46][49]>= I[46]-F[49];
640-640u[46][49]>= F[49]-I[46];
640u[49][46]>= I[49]-F[46];
640-640u[49][46]>= F[46]-I[49];

u[46][50] + u[50][46] >= 1;
640u[46][50]>= I[46]-F[50];
640-640u[46][50]>= F[50]-I[46];
640u[50][46]>= I[50]-F[46];
640-640u[50][46]>= F[46]-I[50];

u[46][59] + u[59][46] >= 1;
640u[46][59]>= I[46]-F[59];
640-640u[46][59]>= F[59]-I[46];
640u[59][46]>= I[59]-F[46];
640-640u[59][46]>= F[46]-I[59];

u[49][50] + u[50][49] >= 1;
640u[49][50]>= I[49]-F[50];
640-640u[49][50]>= F[50]-I[49];
640u[50][49]>= I[50]-F[49];
640-640u[50][49]>= F[49]-I[50];

u[49][59] + u[59][49] >= 1;
640u[49][59]>= I[49]-F[59];
640-640u[49][59]>= F[59]-I[49];
640u[59][49]>= I[59]-F[49];
640-640u[59][49]>= F[49]-I[59];

u[50][59] + u[59][50] >= 1;
640u[50][59]>= I[50]-F[59];
640-640u[50][59]>= F[59]-I[50];
640u[59][50]>= I[59]-F[50];
640-640u[59][50]>= F[50]-I[59];

u[52][58] + u[58][52] >= 1;
640u[52][58]>= I[52]-F[58];
640-640u[52][58]>= F[58]-I[52];
640u[58][52]>= I[58]-F[52];
640-640u[58][52]>= F[52]-I[58];

u[54][56] + u[56][54] >= 1;
640u[54][56]>= I[54]-F[56];
640-640u[54][56]>= F[56]-I[54];
640u[56][54]>= I[56]-F[54];
640-640u[56][54]>= F[54]-I[56];

u[54][60] + u[60][54] >= 1;
640u[54][60]>= I[54]-F[60];
640-640u[54][60]>= F[60]-I[54];
640u[60][54]>= I[60]-F[54];
640-640u[60][54]>= F[54]-I[60];

u[56][60] + u[60][56] >= 1;
640u[56][60]>= I[56]-F[60];
640-640u[56][60]>= F[60]-I[56];
640u[60][56]>= I[60]-F[56];
640-640u[60][56]>= F[56]-I[60];


 // Implementa as restricoes de variaveis binarias
bin u[1][5];
bin u[5][1];
bin u[1][6];
bin u[6][1];
bin u[1][9];
bin u[9][1];
bin u[1][24];
bin u[24][1];
bin u[1][26];
bin u[26][1];
bin u[1][28];
bin u[28][1];
bin u[1][47];
bin u[47][1];
bin u[2][16];
bin u[16][2];
bin u[2][19];
bin u[19][2];
bin u[2][41];
bin u[41][2];
bin u[2][44];
bin u[44][2];
bin u[3][11];
bin u[11][3];
bin u[3][48];
bin u[48][3];
bin u[4][12];
bin u[12][4];
bin u[4][45];
bin u[45][4];
bin u[5][6];
bin u[6][5];
bin u[5][9];
bin u[9][5];
bin u[5][24];
bin u[24][5];
bin u[5][26];
bin u[26][5];
bin u[5][28];
bin u[28][5];
bin u[5][47];
bin u[47][5];
bin u[6][9];
bin u[9][6];
bin u[6][24];
bin u[24][6];
bin u[6][26];
bin u[26][6];
bin u[6][28];
bin u[28][6];
bin u[6][47];
bin u[47][6];
bin u[7][30];
bin u[30][7];
bin u[7][31];
bin u[31][7];
bin u[7][39];
bin u[39][7];
bin u[7][40];
bin u[40][7];
bin u[8][29];
bin u[29][8];
bin u[9][24];
bin u[24][9];
bin u[9][26];
bin u[26][9];
bin u[9][28];
bin u[28][9];
bin u[9][47];
bin u[47][9];
bin u[10][20];
bin u[20][10];
bin u[10][35];
bin u[35][10];
bin u[10][38];
bin u[38][10];
bin u[10][46];
bin u[46][10];
bin u[10][49];
bin u[49][10];
bin u[10][50];
bin u[50][10];
bin u[10][59];
bin u[59][10];
bin u[11][48];
bin u[48][11];
bin u[12][45];
bin u[45][12];
bin u[13][18];
bin u[18][13];
bin u[13][23];
bin u[23][13];
bin u[13][43];
bin u[43][13];
bin u[14][17];
bin u[17][14];
bin u[14][25];
bin u[25][14];
bin u[14][27];
bin u[27][14];
bin u[14][37];
bin u[37][14];
bin u[14][52];
bin u[52][14];
bin u[14][58];
bin u[58][14];
bin u[15][54];
bin u[54][15];
bin u[15][56];
bin u[56][15];
bin u[15][60];
bin u[60][15];
bin u[16][19];
bin u[19][16];
bin u[16][41];
bin u[41][16];
bin u[16][44];
bin u[44][16];
bin u[17][25];
bin u[25][17];
bin u[17][27];
bin u[27][17];
bin u[17][37];
bin u[37][17];
bin u[17][52];
bin u[52][17];
bin u[17][58];
bin u[58][17];
bin u[18][23];
bin u[23][18];
bin u[18][43];
bin u[43][18];
bin u[19][41];
bin u[41][19];
bin u[19][44];
bin u[44][19];
bin u[20][35];
bin u[35][20];
bin u[20][38];
bin u[38][20];
bin u[20][46];
bin u[46][20];
bin u[20][49];
bin u[49][20];
bin u[20][50];
bin u[50][20];
bin u[20][59];
bin u[59][20];
bin u[21][33];
bin u[33][21];
bin u[21][51];
bin u[51][21];
bin u[22][42];
bin u[42][22];
bin u[22][57];
bin u[57][22];
bin u[23][43];
bin u[43][23];
bin u[24][26];
bin u[26][24];
bin u[24][28];
bin u[28][24];
bin u[24][47];
bin u[47][24];
bin u[25][27];
bin u[27][25];
bin u[25][37];
bin u[37][25];
bin u[25][52];
bin u[52][25];
bin u[25][58];
bin u[58][25];
bin u[26][28];
bin u[28][26];
bin u[26][47];
bin u[47][26];
bin u[27][37];
bin u[37][27];
bin u[27][52];
bin u[52][27];
bin u[27][58];
bin u[58][27];
bin u[28][47];
bin u[47][28];
bin u[30][31];
bin u[31][30];
bin u[30][39];
bin u[39][30];
bin u[30][40];
bin u[40][30];
bin u[31][39];
bin u[39][31];
bin u[31][40];
bin u[40][31];
bin u[32][34];
bin u[34][32];
bin u[32][36];
bin u[36][32];
bin u[32][55];
bin u[55][32];
bin u[33][51];
bin u[51][33];
bin u[34][36];
bin u[36][34];
bin u[34][55];
bin u[55][34];
bin u[35][38];
bin u[38][35];
bin u[35][46];
bin u[46][35];
bin u[35][49];
bin u[49][35];
bin u[35][50];
bin u[50][35];
bin u[35][59];
bin u[59][35];
bin u[36][55];
bin u[55][36];
bin u[37][52];
bin u[52][37];
bin u[37][58];
bin u[58][37];
bin u[38][46];
bin u[46][38];
bin u[38][49];
bin u[49][38];
bin u[38][50];
bin u[50][38];
bin u[38][59];
bin u[59][38];
bin u[39][40];
bin u[40][39];
bin u[41][44];
bin u[44][41];
bin u[42][57];
bin u[57][42];
bin u[46][49];
bin u[49][46];
bin u[46][50];
bin u[50][46];
bin u[46][59];
bin u[59][46];
bin u[49][50];
bin u[50][49];
bin u[49][59];
bin u[59][49];
bin u[50][59];
bin u[59][50];
bin u[52][58];
bin u[58][52];
bin u[54][56];
bin u[56][54];
bin u[54][60];
bin u[60][54];
bin u[56][60];
bin u[60][56];
